p cnf 12 50 
2 5 -1 0
-9 1 -8 0
-12 -11 7 0
-7 9 3 0
-1 -11 3 0
-3 6 7 0
-5 12 11 0
-3 -12 2 0
-8 -5 2 0
9 10 3 0
12 -11 10 0
-2 4 8 0
-8 2 -5 0
3 5 8 0
-10 -1 2 0
-10 7 -6 0
-2 -11 -7 0
7 4 6 0
-10 -5 -6 0
-10 6 3 0
7 -9 -8 0
-2 -11 1 0
-4 -2 11 0
-7 3 -8 0
1 -4 11 0
2 10 11 0
-6 9 -5 0
3 -12 -4 0
-4 -2 -6 0
-1 -2 -9 0
11 10 12 0
8 -5 -4 0
6 12 -11 0
11 1 12 0
-11 -9 -10 0
-6 -12 -10 0
-4 -1 7 0
10 8 -4 0
7 5 -12 0
6 1 -7 0
-8 -12 -5 0
6 3 -1 0
-12 3 -11 0
12 1 3 0
5 -7 -2 0
-1 -3 11 0
-4 -11 -9 0
-3 2 -5 0
-1 -9 -3 0
-8 12 1 0
